p td 22 156
2 1
3 1
4 1
4 2
4 3
5 2
5 4
5 3
6 4
6 5
7 1
7 4
7 2
8 5
8 4
8 3
8 2
8 1
8 6
9 6
9 3
9 7
9 5
9 2
10 5
10 8
10 6
10 1
10 7
10 3
10 2
10 9
11 10
11 2
11 7
11 3
11 9
11 6
11 4
12 4
12 9
12 2
12 10
12 6
12 7
12 1
13 9
13 2
13 10
13 4
13 8
14 1
14 10
14 7
14 4
14 11
14 12
14 3
14 5
14 2
15 8
15 9
15 7
15 4
15 3
15 2
15 5
15 12
15 13
15 6
16 6
16 2
16 14
16 5
16 3
16 15
16 1
16 11
16 7
16 12
16 4
16 13
16 8
17 15
17 13
17 4
17 11
17 10
17 3
17 8
17 14
17 7
18 9
18 5
18 8
18 6
18 1
18 10
18 15
18 2
18 4
18 16
19 6
19 4
19 17
19 3
19 16
19 14
19 1
19 18
19 5
19 10
19 7
19 13
20 18
20 15
20 10
20 5
20 12
20 17
20 4
20 8
20 1
20 2
20 16
20 3
20 7
21 12
21 20
21 7
21 3
21 14
21 1
21 19
21 18
21 5
21 10
21 2
21 17
21 4
22 5
22 2
22 7
22 1
22 14
22 17
22 19
22 6
22 8
22 16
22 3
22 15
22 11
22 10
22 9
22 20
